# x   |  y    | demand	| numItems | h - w (for each item)
266.0   235.0	0.0	0
295.0   272.0   125.0	1	5	8
301.0   258.0	84.0	1	26	3
309.0   260.0   60.0	1	14	5
217.0   274.0   500.0	1	4	10
218.0   278.0   300.0	1	16	10
282.0   267.0   175.0	2	7	15	14	5
242.0   249.0   350.0	1	9	8
230.0   262.0   150.0	1	5	12
249.0   268.0	1100.0	1	18	5
256.0   267.0  	4100.0	2	13	9	25	2
265.0   257.0   225.0	2	17	8	14	6
267.0   242.0   300.0	1	19	4
259.0   265.0   250.0	2	19	6	25	3
315.0   233.0   500.0	1	14	7
329.0   252.0   150.0	1	5	13
318.0   252.0   100.0	1	17	3
329.0   224.0   250.0	2	23	4	5	15
267.0   213.0   120.0	2	4	15	8	12
275.0   192.0   600.0	1	18	9
303.0   201.0   500.0	1	17	8
208.0   217.0   175.0	2	6	16	4	12
326.0   181.0	75.0	1	7	14